
Gurobi 9.1.2 (linux64, gurobi_cl) logging started Fri Jul 30 13:55:23 2021

Using license file /opt/gurobi/gurobi.lic
Set parameter TimeLimit to value 600
Set parameter Heuristics to value 0
Set parameter Cuts to value 0
Set parameter LogFile to value 912-Cuts0-Heuristics0-glass4-2.log
Set parameter Seed to value 2

Gurobi Optimizer version 9.1.2 build v9.1.2rc0 (linux64)
Copyright (c) 2021, Gurobi Optimization, LLC

Read MPS format model from file /nfs/models/mip/glass4.mps.bz2
Reading time = 0.01 seconds
glass4: 396 rows, 322 columns, 1815 nonzeros
Thread count: 4 physical cores, 8 logical processors, using up to 8 threads
Optimize a model with 396 rows, 322 columns and 1815 nonzeros
Model fingerprint: 0x0a9d9037
Variable types: 20 continuous, 302 integer (0 binary)
Coefficient statistics:
  Matrix range     [1e+00, 8e+06]
  Objective range  [1e+00, 1e+06]
  Bounds range     [1e+00, 8e+02]
  RHS range        [1e+00, 8e+06]
Presolve removed 6 rows and 6 columns
Presolve time: 0.00s
Presolved: 390 rows, 316 columns, 1803 nonzeros
Variable types: 19 continuous, 297 integer (297 binary)

Root relaxation: objective 8.000024e+08, 72 iterations, 0.00 seconds

    Nodes    |    Current Node    |     Objective Bounds      |     Work
 Expl Unexpl |  Obj  Depth IntInf | Incumbent    BestBd   Gap | It/Node Time

     0     0 8.0000e+08    0   72          - 8.0000e+08      -     -    0s
     0     0 8.0000e+08    0   72          - 8.0000e+08      -     -    0s
     0     2 8.0000e+08    0   72          - 8.0000e+08      -     -    0s
* 2889  2131             143    2.320023e+09 8.0000e+08  65.5%   1.3    0s
* 3343  2096              60    2.300021e+09 8.0000e+08  65.2%   1.5    0s
* 4126  3093             195    2.222244e+09 8.0000e+08  64.0%   1.8    0s
* 4413  2933             109    2.200020e+09 8.0000e+08  63.6%   1.8    0s
* 4991  2721             155    2.066685e+09 8.0000e+08  61.3%   1.9    0s
* 6689  4033             131    2.050020e+09 8.0000e+08  61.0%   2.1    0s
* 6690  4033             131    2.050020e+09 8.0000e+08  61.0%   2.1    0s
* 6694  4033             132    2.050020e+09 8.0000e+08  61.0%   2.1    0s
* 6695  4033             132    2.050019e+09 8.0000e+08  61.0%   2.1    0s
* 6697  4033             130    2.050019e+09 8.0000e+08  61.0%   2.1    0s
* 6698  4033             130    2.050019e+09 8.0000e+08  61.0%   2.1    0s
* 8516  6322             174    1.950019e+09 8.0000e+08  59.0%   2.2    0s
*10564  7492             103    1.950015e+09 8.0000e+08  59.0%   2.3    0s
*11707  7458             113    1.925019e+09 8.0000e+08  58.4%   2.3    0s
*11709  7405             112    1.900018e+09 8.0000e+08  57.9%   2.3    0s
*12124  7663             131    1.900018e+09 8.0000e+08  57.9%   2.4    0s
*12387  7952             146    1.750018e+09 8.0000e+08  54.3%   2.4    0s
*14885  9088             109    1.700017e+09 8.0000e+08  52.9%   2.5    0s
*17470  9984              96    1.700016e+09 8.0000e+08  52.9%   2.6    0s
*24187 13138             116    1.658349e+09 8.0000e+08  51.8%   2.8    0s
*60118 31911              74    1.650014e+09 8.0000e+08  51.5%   3.3    1s
*96083 45461             109    1.600015e+09 8.0000e+08  50.0%   3.5    2s
*129833 59612              93    1.600014e+09 8.0001e+08  50.0%   3.5    4s
*151587 67253              91    1.600014e+09 8.0001e+08  50.0%   3.6    4s
 159489 70167 1.5000e+09   63   44 1.6000e+09 8.0001e+08  50.0%   3.7    5s
*224419 105248              81    1.600014e+09 9.0000e+08  43.8%   3.6    6s
*224421 104869              80    1.600013e+09 9.0000e+08  43.8%   3.6    6s
*264300 123747              70    1.600013e+09 9.0000e+08  43.8%   3.6    8s
*264578 103405              77    1.550014e+09 9.0000e+08  41.9%   3.7    8s
*302468 113875              71    1.533349e+09 9.0000e+08  41.3%   3.7    9s
 315857 118048 infeasible   46      1.5333e+09 9.0001e+08  41.3%   3.8   10s
*352771 127045              94    1.500015e+09 9.0001e+08  40.0%   3.8   11s
*416623 141544              66    1.500014e+09 9.0001e+08  40.0%   3.9   13s
*416624 141526              66    1.500014e+09 9.0001e+08  40.0%   3.9   13s
 454082 148910 infeasible   67      1.5000e+09 9.0001e+08  40.0%   4.0   15s
*477935 150869              53    1.500013e+09 9.0346e+08  39.8%   4.0   15s
*558480 172066              52    1.500013e+09 1.0000e+09  33.3%   4.1   18s
*572171 175999              83    1.500013e+09 1.0000e+09  33.3%   4.1   19s
 591114 183120 1.0000e+09   51   56 1.5000e+09 1.0000e+09  33.3%   4.1   20s
 726885 212459 1.5000e+09   65    6 1.5000e+09 1.0000e+09  33.3%   4.2   25s
*739296 212004              57    1.500013e+09 1.0000e+09  33.3%   4.2   25s
*739304 211859              63    1.500013e+09 1.0000e+09  33.3%   4.2   25s
*751582 212944             104    1.500013e+09 1.0000e+09  33.3%   4.2   26s
*751583 212678             103    1.500012e+09 1.0000e+09  33.3%   4.2   26s
*799824 214322              66    1.500012e+09 1.0250e+09  31.7%   4.2   28s
 843919 225071 1.0500e+09   91   38 1.5000e+09 1.0500e+09  30.0%   4.2   30s
 975559 263609 1.1500e+09   39   40 1.5000e+09 1.1000e+09  26.7%   4.2   35s
*1036504 191520              58    1.433349e+09 1.1000e+09  23.3%   4.2   37s
*1087604 198377              63    1.433348e+09 1.1000e+09  23.3%   4.2   39s
*1087606 191495              64    1.400013e+09 1.1000e+09  21.4%   4.2   39s
*1089629 192618              78    1.400013e+09 1.1000e+09  21.4%   4.2   39s
 1096430 192582 infeasible   51      1.4000e+09 1.1000e+09  21.4%   4.2   40s
*1163253 194420              64    1.400013e+09 1.1000e+09  21.4%   4.3   42s
 1210553 193006 infeasible   53      1.4000e+09 1.1000e+09  21.4%   4.3   45s
 1309953 174130 infeasible   78      1.4000e+09 1.1500e+09  17.9%   4.3   50s
*1395761 123352              68    1.399973e+09 1.2000e+09  14.3%   4.3   54s
 1410629 125084 infeasible   46      1.4000e+09 1.2000e+09  14.3%   4.3   55s
*1433550 123068             106    1.375015e+09 1.2000e+09  12.7%   4.3   56s
 1526652 104371 infeasible   55      1.3750e+09 1.2000e+09  12.7%   4.3   60s
*1539030  5348              82    1.200013e+09 1.2000e+09  0.00%   4.3   60s

Explored 1540196 nodes (6602777 simplex iterations) in 60.96 seconds
Thread count was 8 (of 8 available processors)

Solution count 10: 1.20001e+09 1.37501e+09 1.39997e+09 ... 1.50001e+09

Optimal solution found (tolerance 1.00e-04)
Best objective 1.200012600000e+09, best bound 1.200009200000e+09, gap 0.0003%
